p cnf 1127 3030
-2 -3 4 0
-4 2 0
-4 3 0
-3 -5 6 0
-6 3 0
-6 5 0
-3 -7 8 0
-8 3 0
-8 7 0
-5 -9 10 0
-10 5 0
-10 9 0
-9 -11 12 0
-12 9 0
-12 11 0
12 10 13 0
-13 -12 0
-13 -10 0
-7 -9 14 0
-14 7 0
-14 9 0
-13 14 15 0
-15 13 0
-15 -14 0
-16 -3 17 0
-17 16 0
-17 3 0
-15 17 18 0
-18 15 0
-18 -17 0
8 -18 19 0
-19 -8 0
-19 18 0
-20 -3 21 0
-21 20 0
-21 3 0
-19 21 22 0
-22 19 0
-22 -21 0
-22 6 23 0
-23 22 0
-23 -6 0
-11 -3 24 0
-24 11 0
-24 3 0
-23 24 25 0
-25 23 0
-25 -24 0
4 -25 26 0
-26 -4 0
-26 25 0
1 -26 27 0
-27 -1 0
-27 26 0
-1 26 28 0
-28 1 0
-28 -26 0
28 27 29 0
-29 -28 0
-29 -27 0
-30 -11 31 0
-31 30 0
-31 11 0
-30 -32 33 0
-33 30 0
-33 32 0
-34 -30 35 0
-35 34 0
-35 30 0
-30 -7 36 0
-36 30 0
-36 7 0
35 36 37 0
-37 -35 0
-37 -36 0
-5 -30 38 0
-38 5 0
-38 30 0
38 -37 39 0
-39 -38 0
-39 37 0
-30 -40 41 0
-41 30 0
-41 40 0
-39 41 42 0
-42 39 0
-42 -41 0
33 -42 43 0
-43 -33 0
-43 42 0
31 -43 44 0
-44 -31 0
-44 43 0
-44 45 46 0
-46 44 0
-46 -45 0
44 -45 47 0
-47 -44 0
-47 45 0
47 46 48 0
-48 -47 0
-48 -46 0
-9 -32 50 0
-50 9 0
-50 32 0
-9 -34 51 0
-51 9 0
-51 34 0
-9 -16 52 0
-52 9 0
-52 16 0
-53 -2 54 0
-54 53 0
-54 2 0
-16 -53 55 0
-55 16 0
-55 53 0
54 55 56 0
-56 -54 0
-56 -55 0
-53 -20 57 0
-57 53 0
-57 20 0
-56 57 58 0
-58 56 0
-58 -57 0
-58 52 59 0
-59 58 0
-59 -52 0
-20 -9 60 0
-60 20 0
-60 9 0
-59 60 61 0
-61 59 0
-61 -60 0
-61 51 62 0
-62 61 0
-62 -51 0
-40 -9 63 0
-63 40 0
-63 9 0
-62 63 64 0
-64 62 0
-64 -63 0
-64 50 65 0
-65 64 0
-65 -50 0
-2 -9 66 0
-66 2 0
-66 9 0
-65 66 67 0
-67 65 0
-67 -66 0
49 -67 68 0
-68 -49 0
-68 67 0
-49 67 69 0
-69 49 0
-69 -67 0
69 68 70 0
-70 -69 0
-70 -68 0
-2 -72 73 0
-73 2 0
-73 72 0
-72 -32 74 0
-74 72 0
-74 32 0
-34 -72 75 0
-75 34 0
-75 72 0
-72 -20 76 0
-76 72 0
-76 20 0
-7 -72 77 0
-77 7 0
-77 72 0
-30 -2 78 0
-78 30 0
-78 2 0
-72 -16 79 0
-79 72 0
-79 16 0
78 79 80 0
-80 -78 0
-80 -79 0
-80 77 81 0
-81 80 0
-81 -77 0
-81 76 82 0
-82 81 0
-82 -76 0
75 -82 83 0
-83 -75 0
-83 82 0
-72 -5 84 0
-84 72 0
-84 5 0
-83 84 85 0
-85 83 0
-85 -84 0
-72 -40 86 0
-86 72 0
-86 40 0
-85 86 87 0
-87 85 0
-87 -86 0
-87 74 88 0
-88 87 0
-88 -74 0
-11 -72 89 0
-89 11 0
-89 72 0
89 -88 90 0
-90 -89 0
-90 88 0
73 -90 91 0
-91 -73 0
-91 90 0
-71 91 92 0
-92 71 0
-92 -91 0
71 -91 93 0
-93 -71 0
-93 91 0
92 93 94 0
-94 -92 0
-94 -93 0
-95 -11 96 0
-96 95 0
-96 11 0
-32 -95 97 0
-97 32 0
-97 95 0
-95 -5 98 0
-98 95 0
-98 5 0
-95 -34 99 0
-99 95 0
-99 34 0
-95 -20 100 0
-100 95 0
-100 20 0
-95 -16 101 0
-101 95 0
-101 16 0
-20 -30 102 0
-102 20 0
-102 30 0
102 101 103 0
-103 -102 0
-103 -101 0
-95 -7 104 0
-104 95 0
-104 7 0
-103 104 105 0
-105 103 0
-105 -104 0
-105 100 106 0
-106 105 0
-106 -100 0
-106 99 107 0
-107 106 0
-107 -99 0
-107 98 108 0
-108 107 0
-108 -98 0
-95 -40 109 0
-109 95 0
-109 40 0
-108 109 110 0
-110 108 0
-110 -109 0
97 -110 111 0
-111 -97 0
-111 110 0
96 -111 112 0
-112 -96 0
-112 111 0
-2 -95 113 0
-113 2 0
-113 95 0
113 -112 114 0
-114 -113 0
-114 112 0
115 -114 116 0
-116 -115 0
-116 114 0
-115 114 117 0
-117 115 0
-117 -114 0
117 116 118 0
-118 -117 0
-118 -116 0
-2 -119 120 0
-120 2 0
-120 119 0
-11 -119 121 0
-121 11 0
-121 119 0
-32 -119 122 0
-122 32 0
-122 119 0
-40 -119 123 0
-123 40 0
-123 119 0
-5 -119 124 0
-124 5 0
-124 119 0
-34 -119 125 0
-125 34 0
-125 119 0
-16 -119 126 0
-126 16 0
-126 119 0
-11 -127 128 0
-128 11 0
-128 127 0
128 126 129 0
-129 -128 0
-129 -126 0
-7 -119 130 0
-130 7 0
-130 119 0
130 -129 131 0
-131 -130 0
-131 129 0
-20 -119 132 0
-132 20 0
-132 119 0
-131 132 133 0
-133 131 0
-133 -132 0
125 -133 134 0
-134 -125 0
-134 133 0
-134 124 135 0
-135 134 0
-135 -124 0
123 -135 136 0
-136 -123 0
-136 135 0
-136 122 137 0
-137 136 0
-137 -122 0
-137 121 138 0
-138 137 0
-138 -121 0
-138 120 139 0
-139 138 0
-139 -120 0
140 -139 141 0
-141 -140 0
-141 139 0
-140 139 142 0
-142 140 0
-142 -139 0
142 141 143 0
-143 -142 0
-143 -141 0
-145 -144 146 0
-146 145 0
-146 144 0
-147 -145 148 0
-148 147 0
-148 145 0
-149 -145 150 0
-150 149 0
-150 145 0
-151 -145 152 0
-152 151 0
-152 145 0
-145 -153 154 0
-154 145 0
-154 153 0
-155 -145 156 0
-156 155 0
-156 145 0
-151 -157 158 0
-158 151 0
-158 157 0
158 156 159 0
-159 -158 0
-159 -156 0
154 -159 160 0
-160 -154 0
-160 159 0
-145 -161 162 0
-162 145 0
-162 161 0
162 -160 163 0
-163 -162 0
-163 160 0
-145 -164 165 0
-165 145 0
-165 164 0
165 -163 166 0
-166 -165 0
-166 163 0
-166 152 167 0
-167 166 0
-167 -152 0
-167 150 168 0
-168 167 0
-168 -150 0
148 -168 169 0
-169 -148 0
-169 168 0
-169 146 170 0
-170 169 0
-170 -146 0
-145 -171 172 0
-172 145 0
-172 171 0
172 -170 173 0
-173 -172 0
-173 170 0
-173 174 175 0
-175 173 0
-175 -174 0
173 -174 176 0
-176 -173 0
-176 174 0
176 175 177 0
-177 -176 0
-177 -175 0
-147 -157 178 0
-178 147 0
-178 157 0
-157 -161 179 0
-179 157 0
-179 161 0
-155 -157 180 0
-180 155 0
-180 157 0
180 179 181 0
-181 -180 0
-181 -179 0
-157 -164 182 0
-182 157 0
-182 164 0
-181 182 183 0
-183 181 0
-183 -182 0
-157 -149 184 0
-184 157 0
-184 149 0
184 -183 185 0
-185 -184 0
-185 183 0
178 -185 186 0
-186 -178 0
-186 185 0
-171 -157 187 0
-187 171 0
-187 157 0
187 -186 188 0
-188 -187 0
-188 186 0
127 -188 189 0
-189 -127 0
-189 188 0
-127 188 190 0
-190 127 0
-190 -188 0
190 189 191 0
-191 -190 0
-191 -189 0
-192 -171 193 0
-193 192 0
-193 171 0
-192 -144 194 0
-194 192 0
-194 144 0
-147 -192 195 0
-195 147 0
-195 192 0
-192 -149 196 0
-196 192 0
-196 149 0
-151 -192 197 0
-197 151 0
-197 192 0
-164 -192 198 0
-198 164 0
-198 192 0
-192 -161 199 0
-199 192 0
-199 161 0
-192 -155 200 0
-200 192 0
-200 155 0
-201 -164 202 0
-202 201 0
-202 164 0
-201 -147 203 0
-203 201 0
-203 147 0
202 203 204 0
-204 -202 0
-204 -203 0
-201 -149 205 0
-205 201 0
-205 149 0
-204 205 206 0
-206 204 0
-206 -205 0
-206 200 207 0
-207 206 0
-207 -200 0
-153 -192 208 0
-208 153 0
-208 192 0
-207 208 209 0
-209 207 0
-209 -208 0
199 -209 210 0
-210 -199 0
-210 209 0
-210 198 211 0
-211 210 0
-211 -198 0
197 -211 212 0
-212 -197 0
-212 211 0
-212 196 213 0
-213 212 0
-213 -196 0
-213 195 214 0
-214 213 0
-214 -195 0
194 -214 215 0
-215 -194 0
-215 214 0
-215 193 216 0
-216 215 0
-216 -193 0
216 -217 218 0
-218 -216 0
-218 217 0
-216 217 219 0
-219 216 0
-219 -217 0
218 219 220 0
-220 -218 0
-220 -219 0
-221 -144 222 0
-222 221 0
-222 144 0
-221 -164 223 0
-223 221 0
-223 164 0
-221 -153 224 0
-224 221 0
-224 153 0
223 224 225 0
-225 -223 0
-225 -224 0
-221 -151 226 0
-226 221 0
-226 151 0
226 -225 227 0
-227 -226 0
-227 225 0
-221 -149 228 0
-228 221 0
-228 149 0
-227 228 229 0
-229 227 0
-229 -228 0
-147 -221 230 0
-230 147 0
-230 221 0
230 -229 231 0
-231 -230 0
-231 229 0
222 -231 232 0
-232 -222 0
-232 231 0
30 -232 233 0
-233 -30 0
-233 232 0
-30 232 234 0
-234 30 0
-234 -232 0
234 233 235 0
-235 -234 0
-235 -233 0
-236 -171 237 0
-237 236 0
-237 171 0
-236 -147 238 0
-238 236 0
-238 147 0
-236 -149 239 0
-239 236 0
-239 149 0
-161 -236 240 0
-240 161 0
-240 236 0
-241 -171 242 0
-242 241 0
-242 171 0
-241 -155 243 0
-243 241 0
-243 155 0
243 242 244 0
-244 -243 0
-244 -242 0
-241 -161 245 0
-245 241 0
-245 161 0
245 -244 246 0
-246 -245 0
-246 244 0
-236 -155 247 0
-247 236 0
-247 155 0
247 -246 248 0
-248 -247 0
-248 246 0
-248 240 249 0
-249 248 0
-249 -240 0
-164 -236 250 0
-250 164 0
-250 236 0
250 -249 251 0
-251 -250 0
-251 249 0
239 -251 252 0
-252 -239 0
-252 251 0
-252 238 253 0
-253 252 0
-253 -238 0
237 -253 254 0
-254 -237 0
-254 253 0
254 -9 255 0
-255 -254 0
-255 9 0
-254 9 256 0
-256 254 0
-256 -9 0
255 256 257 0
-257 -255 0
-257 -256 0
-258 -171 259 0
-259 258 0
-259 171 0
-144 -258 260 0
-260 144 0
-260 258 0
-149 -258 261 0
-261 149 0
-261 258 0
-258 -164 262 0
-262 258 0
-262 164 0
-258 -153 263 0
-263 258 0
-263 153 0
-161 -221 264 0
-264 161 0
-264 221 0
-155 -258 265 0
-265 155 0
-265 258 0
264 265 266 0
-266 -264 0
-266 -265 0
263 -266 267 0
-267 -263 0
-267 266 0
-161 -258 268 0
-268 161 0
-268 258 0
268 -267 269 0
-269 -268 0
-269 267 0
-269 262 270 0
-270 269 0
-270 -262 0
-151 -258 271 0
-271 151 0
-271 258 0
-270 271 272 0
-272 270 0
-272 -271 0
-272 261 273 0
-273 272 0
-273 -261 0
-258 -147 274 0
-274 258 0
-274 147 0
274 -273 275 0
-275 -274 0
-275 273 0
260 -275 276 0
-276 -260 0
-276 275 0
259 -276 277 0
-277 -259 0
-277 276 0
277 -95 278 0
-278 -277 0
-278 95 0
-277 95 279 0
-279 277 0
-279 -95 0
278 279 280 0
-280 -278 0
-280 -279 0
-281 -149 282 0
-282 281 0
-282 149 0
-151 -281 283 0
-283 151 0
-283 281 0
-281 -164 284 0
-284 281 0
-284 164 0
-157 -144 285 0
-285 157 0
-285 144 0
-155 -281 286 0
-286 155 0
-286 281 0
285 286 287 0
-287 -285 0
-287 -286 0
-153 -281 288 0
-288 153 0
-288 281 0
288 -287 289 0
-289 -288 0
-289 287 0
-161 -281 290 0
-290 161 0
-290 281 0
290 -289 291 0
-291 -290 0
-291 289 0
284 -291 292 0
-292 -284 0
-292 291 0
-292 283 293 0
-293 292 0
-293 -283 0
-293 282 294 0
-294 293 0
-294 -282 0
-281 -147 295 0
-295 281 0
-295 147 0
295 -294 296 0
-296 -295 0
-296 294 0
-281 -144 297 0
-297 281 0
-297 144 0
297 -296 298 0
-298 -297 0
-298 296 0
-171 -281 299 0
-299 171 0
-299 281 0
-298 299 300 0
-300 298 0
-300 -299 0
300 -119 301 0
-301 -300 0
-301 119 0
-300 119 302 0
-302 300 0
-302 -119 0
301 302 303 0
-303 -301 0
-303 -302 0
305 281 306 0
-306 -305 0
-306 -281 0
-306 258 307 0
-307 306 0
-307 -258 0
304 -307 308 0
-308 -304 0
-308 307 0
-308 236 309 0
-309 308 0
-309 -236 0
310 -309 311 0
-311 -310 0
-311 309 0
-311 -221 312 0
-312 311 0
-312 221 0
201 -312 313 0
-313 -201 0
-313 312 0
-313 192 314 0
-314 313 0
-314 -192 0
-241 -314 315 0
-315 241 0
-315 314 0
-315 -157 316 0
-316 315 0
-316 157 0
-316 145 317 0
-317 316 0
-317 -145 0
-305 -147 319 0
-319 305 0
-319 147 0
-305 -151 320 0
-320 305 0
-320 151 0
-155 -305 321 0
-321 155 0
-321 305 0
-153 -157 322 0
-322 153 0
-322 157 0
321 322 323 0
-323 -321 0
-323 -322 0
-305 -153 324 0
-324 305 0
-324 153 0
324 -323 325 0
-325 -324 0
-325 323 0
-161 -305 326 0
-326 161 0
-326 305 0
-325 326 327 0
-327 325 0
-327 -326 0
-305 -164 328 0
-328 305 0
-328 164 0
328 -327 329 0
-329 -328 0
-329 327 0
-329 320 330 0
-330 329 0
-330 -320 0
-149 -305 331 0
-331 149 0
-331 305 0
331 -330 332 0
-332 -331 0
-332 330 0
319 -332 333 0
-333 -319 0
-333 332 0
-144 -305 334 0
-334 144 0
-334 305 0
334 -333 335 0
-335 -334 0
-335 333 0
-171 -305 336 0
-336 171 0
-336 305 0
336 -335 337 0
-337 -336 0
-337 335 0
337 -318 338 0
-338 -337 0
-338 318 0
-337 318 339 0
-339 337 0
-339 -318 0
338 339 340 0
-340 -338 0
-340 -339 0
340 -317 341 0
-341 -340 0
-341 317 0
-341 303 342 0
-342 341 0
-342 -303 0
-342 280 343 0
-343 342 0
-343 -280 0
-144 -304 344 0
-344 144 0
-344 304 0
-304 -147 345 0
-345 304 0
-345 147 0
-149 -304 346 0
-346 149 0
-346 304 0
-151 -304 347 0
-347 151 0
-347 304 0
-304 -161 348 0
-348 304 0
-348 161 0
-304 -153 349 0
-349 304 0
-349 153 0
-155 -304 350 0
-350 155 0
-350 304 0
-171 -221 351 0
-351 171 0
-351 221 0
351 350 352 0
-352 -351 0
-352 -350 0
349 -352 353 0
-353 -349 0
-353 352 0
-353 348 354 0
-354 353 0
-354 -348 0
-304 -164 355 0
-355 304 0
-355 164 0
355 -354 356 0
-356 -355 0
-356 354 0
347 -356 357 0
-357 -347 0
-357 356 0
-357 346 358 0
-358 357 0
-358 -346 0
345 -358 359 0
-359 -345 0
-359 358 0
-359 344 360 0
-360 359 0
-360 -344 0
-304 -171 361 0
-361 304 0
-361 171 0
361 -360 362 0
-362 -361 0
-362 360 0
72 -362 363 0
-363 -72 0
-363 362 0
-72 362 364 0
-364 72 0
-364 -362 0
364 363 365 0
-365 -364 0
-365 -363 0
365 -343 366 0
-366 -365 0
-366 343 0
257 -366 367 0
-367 -257 0
-367 366 0
-171 -310 369 0
-369 171 0
-369 310 0
-310 -144 370 0
-370 310 0
-370 144 0
-147 -310 371 0
-371 147 0
-371 310 0
-153 -310 372 0
-372 153 0
-372 310 0
-155 -221 373 0
-373 155 0
-373 221 0
-155 -310 374 0
-374 155 0
-374 310 0
374 373 375 0
-375 -374 0
-375 -373 0
-375 372 376 0
-376 375 0
-376 -372 0
-310 -161 377 0
-377 310 0
-377 161 0
-376 377 378 0
-378 376 0
-378 -377 0
-310 -164 379 0
-379 310 0
-379 164 0
-378 379 380 0
-380 378 0
-380 -379 0
-310 -151 381 0
-381 310 0
-381 151 0
-380 381 382 0
-382 380 0
-382 -381 0
-149 -310 383 0
-383 149 0
-383 310 0
383 -382 384 0
-384 -383 0
-384 382 0
-384 371 385 0
-385 384 0
-385 -371 0
370 -385 386 0
-386 -370 0
-386 385 0
-386 369 387 0
-387 386 0
-387 -369 0
368 -387 388 0
-388 -368 0
-388 387 0
-368 387 389 0
-389 368 0
-389 -387 0
389 388 390 0
-390 -389 0
-390 -388 0
390 -367 391 0
-391 -390 0
-391 367 0
-391 235 392 0
-392 391 0
-392 -235 0
-201 -171 393 0
-393 201 0
-393 171 0
-144 -201 394 0
-394 144 0
-394 201 0
-201 -153 395 0
-395 201 0
-395 153 0
-151 -236 396 0
-396 151 0
-396 236 0
-236 -144 397 0
-397 236 0
-397 144 0
396 397 398 0
-398 -396 0
-398 -397 0
-153 -236 399 0
-399 153 0
-399 236 0
399 -398 400 0
-400 -399 0
-400 398 0
-155 -201 401 0
-401 155 0
-401 201 0
-400 401 402 0
-402 400 0
-402 -401 0
395 -402 403 0
-403 -395 0
-403 402 0
-201 -161 404 0
-404 201 0
-404 161 0
-403 404 405 0
-405 403 0
-405 -404 0
-151 -201 406 0
-406 151 0
-406 201 0
-405 406 407 0
-407 405 0
-407 -406 0
-407 394 408 0
-408 407 0
-408 -394 0
-408 393 409 0
-409 408 0
-409 -393 0
3 -409 410 0
-410 -3 0
-410 409 0
-3 409 411 0
-411 3 0
-411 -409 0
411 410 412 0
-412 -411 0
-412 -410 0
412 -392 413 0
-413 -412 0
-413 392 0
-413 220 414 0
-414 413 0
-414 -220 0
-164 -241 415 0
-415 164 0
-415 241 0
-153 -241 416 0
-416 153 0
-416 241 0
415 416 417 0
-417 -415 0
-417 -416 0
-241 -151 418 0
-418 241 0
-418 151 0
-417 418 419 0
-419 417 0
-419 -418 0
-241 -149 420 0
-420 241 0
-420 149 0
420 -419 421 0
-421 -420 0
-421 419 0
-147 -241 422 0
-422 147 0
-422 241 0
-421 422 423 0
-423 421 0
-423 -422 0
-144 -241 424 0
-424 144 0
-424 241 0
-423 424 425 0
-425 423 0
-425 -424 0
53 -425 426 0
-426 -53 0
-426 425 0
-53 425 427 0
-427 53 0
-427 -425 0
427 426 428 0
-428 -427 0
-428 -426 0
428 -414 429 0
-429 -428 0
-429 414 0
191 -429 430 0
-430 -191 0
-430 429 0
-430 177 431 0
-431 430 0
-431 -177 0
-318 -11 433 0
-433 318 0
-433 11 0
-318 -16 434 0
-434 318 0
-434 16 0
-127 -7 435 0
-435 127 0
-435 7 0
435 434 436 0
-436 -435 0
-436 -434 0
-318 -7 437 0
-437 318 0
-437 7 0
437 -436 438 0
-438 -437 0
-438 436 0
-318 -20 439 0
-439 318 0
-439 20 0
439 -438 440 0
-440 -439 0
-440 438 0
-318 -34 441 0
-441 318 0
-441 34 0
-440 441 442 0
-442 440 0
-442 -441 0
-5 -318 443 0
-443 5 0
-443 318 0
443 -442 444 0
-444 -443 0
-444 442 0
-318 -40 445 0
-445 318 0
-445 40 0
445 -444 446 0
-446 -445 0
-446 444 0
-32 -318 447 0
-447 32 0
-447 318 0
447 -446 448 0
-448 -447 0
-448 446 0
433 -448 449 0
-449 -433 0
-449 448 0
-2 -318 450 0
-450 2 0
-450 318 0
-449 450 451 0
-451 449 0
-451 -450 0
451 -432 452 0
-452 -451 0
-452 432 0
-451 432 453 0
-453 451 0
-453 -432 0
452 453 454 0
-454 -452 0
-454 -453 0
454 -431 455 0
-455 -454 0
-455 431 0
-455 143 456 0
-456 455 0
-456 -143 0
-456 118 457 0
-457 456 0
-457 -118 0
-457 94 458 0
-458 457 0
-458 -94 0
-458 70 459 0
-459 458 0
-459 -70 0
-368 -5 461 0
-461 368 0
-461 5 0
-20 -368 462 0
-462 20 0
-462 368 0
-368 -7 463 0
-463 368 0
-463 7 0
-16 -368 464 0
-464 16 0
-464 368 0
-30 -16 465 0
-465 30 0
-465 16 0
464 465 466 0
-466 -464 0
-466 -465 0
-466 463 467 0
-467 466 0
-467 -463 0
462 -467 468 0
-468 -462 0
-468 467 0
-368 -34 469 0
-469 368 0
-469 34 0
469 -468 470 0
-470 -469 0
-470 468 0
-470 461 471 0
-471 470 0
-471 -461 0
-368 -40 472 0
-472 368 0
-472 40 0
-471 472 473 0
-473 471 0
-473 -472 0
-32 -368 474 0
-474 32 0
-474 368 0
474 -473 475 0
-475 -474 0
-475 473 0
-11 -368 476 0
-476 11 0
-476 368 0
-475 476 477 0
-477 475 0
-477 -476 0
-2 -368 478 0
-478 2 0
-478 368 0
478 -477 479 0
-479 -478 0
-479 477 0
-479 460 480 0
-480 479 0
-480 -460 0
479 -460 481 0
-481 -479 0
-481 460 0
481 480 482 0
-482 -481 0
-482 -480 0
482 -459 483 0
-483 -482 0
-483 459 0
-483 48 484 0
-484 483 0
-484 -48 0
-484 29 485 0
-485 484 0
-485 -29 0
-217 -2 486 0
-486 217 0
-486 2 0
-5 -217 487 0
-487 5 0
-487 217 0
-20 -217 488 0
-488 20 0
-488 217 0
-217 -7 489 0
-489 217 0
-489 7 0
-40 -3 490 0
-490 40 0
-490 3 0
-32 -3 491 0
-491 32 0
-491 3 0
-34 -3 492 0
-492 34 0
-492 3 0
491 492 493 0
-493 -491 0
-493 -492 0
-493 490 494 0
-494 493 0
-494 -490 0
-16 -217 495 0
-495 16 0
-495 217 0
495 -494 496 0
-496 -495 0
-496 494 0
-496 489 497 0
-497 496 0
-497 -489 0
488 -497 498 0
-498 -488 0
-498 497 0
-217 -34 499 0
-499 217 0
-499 34 0
499 -498 500 0
-500 -499 0
-500 498 0
487 -500 501 0
-501 -487 0
-501 500 0
-40 -217 502 0
-502 40 0
-502 217 0
502 -501 503 0
-503 -502 0
-503 501 0
-32 -217 504 0
-504 32 0
-504 217 0
504 -503 505 0
-505 -504 0
-505 503 0
-217 -11 506 0
-506 217 0
-506 11 0
-505 506 507 0
-507 505 0
-507 -506 0
486 -507 508 0
-508 -486 0
-508 507 0
-509 508 510 0
-510 509 0
-510 -508 0
509 -508 511 0
-511 -509 0
-511 508 0
510 511 512 0
-512 -510 0
-512 -511 0
512 -485 513 0
-513 -512 0
-513 485 0
-40 -53 514 0
-514 40 0
-514 53 0
-34 -53 515 0
-515 34 0
-515 53 0
-7 -53 516 0
-516 7 0
-516 53 0
515 516 517 0
-517 -515 0
-517 -516 0
-5 -53 518 0
-518 5 0
-518 53 0
-517 518 519 0
-519 517 0
-519 -518 0
514 -519 520 0
-520 -514 0
-520 519 0
-32 -53 521 0
-521 32 0
-521 53 0
521 -520 522 0
-522 -521 0
-522 520 0
-53 -11 523 0
-523 53 0
-523 11 0
-522 523 524 0
-524 522 0
-524 -523 0
525 -524 526 0
-526 -525 0
-526 524 0
-525 524 527 0
-527 525 0
-527 -524 0
527 526 528 0
-528 -527 0
-528 -526 0
528 -513 529 0
-529 -528 0
-529 513 0
-32 -127 530 0
-530 32 0
-530 127 0
-16 -127 531 0
-531 16 0
-531 127 0
-20 -127 532 0
-532 20 0
-532 127 0
531 532 533 0
-533 -531 0
-533 -532 0
-127 -34 534 0
-534 127 0
-534 34 0
-533 534 535 0
-535 533 0
-535 -534 0
-127 -40 536 0
-536 127 0
-536 40 0
-535 536 537 0
-537 535 0
-537 -536 0
-537 530 538 0
-538 537 0
-538 -530 0
-2 -127 539 0
-539 2 0
-539 127 0
539 -538 540 0
-540 -539 0
-540 538 0
-540 541 542 0
-542 540 0
-542 -541 0
540 -541 543 0
-543 -540 0
-543 541 0
543 542 544 0
-544 -543 0
-544 -542 0
-529 544 545 0
-545 529 0
-545 -544 0
-174 -11 547 0
-547 174 0
-547 11 0
-40 -174 548 0
-548 40 0
-548 174 0
-174 -5 549 0
-549 174 0
-549 5 0
-174 -20 550 0
-550 174 0
-550 20 0
-7 -174 551 0
-551 7 0
-551 174 0
-5 -127 552 0
-552 5 0
-552 127 0
-174 -16 553 0
-553 174 0
-553 16 0
552 553 554 0
-554 -552 0
-554 -553 0
551 -554 555 0
-555 -551 0
-555 554 0
550 -555 556 0
-556 -550 0
-556 555 0
-174 -34 557 0
-557 174 0
-557 34 0
557 -556 558 0
-558 -557 0
-558 556 0
-558 549 559 0
-559 558 0
-559 -549 0
548 -559 560 0
-560 -548 0
-560 559 0
-174 -32 561 0
-561 174 0
-561 32 0
-560 561 562 0
-562 560 0
-562 -561 0
547 -562 563 0
-563 -547 0
-563 562 0
-2 -174 564 0
-564 2 0
-564 174 0
-563 564 565 0
-565 563 0
-565 -564 0
-565 546 566 0
-566 565 0
-566 -546 0
565 -546 567 0
-567 -565 0
-567 546 0
567 566 568 0
-568 -567 0
-568 -566 0
568 -545 569 0
-569 -568 0
-569 545 0
575 -574 576 0
-576 -575 0
-576 574 0
577 -576 578 0
-578 -577 0
-578 576 0
573 -578 579 0
-579 -573 0
-579 578 0
-579 580 581 0
-581 579 0
-581 -580 0
582 -581 583 0
-583 -582 0
-583 581 0
-583 572 584 0
-584 583 0
-584 -572 0
571 -584 585 0
-585 -571 0
-585 584 0
-585 570 586 0
-586 585 0
-586 -570 0
-570 575 587 0
-587 570 0
-587 -575 0
-587 577 588 0
-588 587 0
-588 -577 0
573 -588 589 0
-589 -573 0
-589 588 0
580 -589 590 0
-590 -580 0
-590 589 0
582 -590 591 0
-591 -582 0
-591 590 0
-591 572 592 0
-592 591 0
-592 -572 0
-592 571 593 0
-593 592 0
-593 -571 0
-593 574 594 0
-594 593 0
-594 -574 0
575 -582 595 0
-595 -575 0
-595 582 0
577 -595 596 0
-596 -577 0
-596 595 0
-596 573 597 0
-597 596 0
-597 -573 0
580 -597 598 0
-598 -580 0
-598 597 0
572 -598 599 0
-599 -572 0
-599 598 0
-599 571 600 0
-600 599 0
-600 -571 0
-600 570 601 0
-601 600 0
-601 -570 0
574 -601 602 0
-602 -574 0
-602 601 0
575 -573 603 0
-603 -575 0
-603 573 0
-603 577 604 0
-604 603 0
-604 -577 0
580 -604 605 0
-605 -580 0
-605 604 0
582 -605 606 0
-606 -582 0
-606 605 0
572 -606 607 0
-607 -572 0
-607 606 0
571 -607 608 0
-608 -571 0
-608 607 0
570 -608 609 0
-609 -570 0
-609 608 0
-609 574 610 0
-610 609 0
-610 -574 0
-577 575 611 0
-611 577 0
-611 -575 0
-611 573 612 0
-612 611 0
-612 -573 0
580 -612 613 0
-613 -580 0
-613 612 0
-613 582 614 0
-614 613 0
-614 -582 0
572 -614 615 0
-615 -572 0
-615 614 0
-615 571 616 0
-616 615 0
-616 -571 0
-616 570 617 0
-617 616 0
-617 -570 0
574 -617 618 0
-618 -574 0
-618 617 0
577 -575 619 0
-619 -577 0
-619 575 0
573 -619 620 0
-620 -573 0
-620 619 0
-620 580 621 0
-621 620 0
-621 -580 0
-621 582 622 0
-622 621 0
-622 -582 0
572 -622 623 0
-623 -572 0
-623 622 0
-623 571 624 0
-624 623 0
-624 -571 0
-624 570 625 0
-625 624 0
-625 -570 0
574 -625 626 0
-626 -574 0
-626 625 0
618 626 627 0
-627 -618 0
-627 -626 0
610 -627 628 0
-628 -610 0
-628 627 0
-580 575 629 0
-629 580 0
-629 -575 0
577 -629 630 0
-630 -577 0
-630 629 0
573 -630 631 0
-631 -573 0
-631 630 0
-631 582 632 0
-632 631 0
-632 -582 0
-632 572 633 0
-633 632 0
-633 -572 0
-633 571 634 0
-634 633 0
-634 -571 0
-634 570 635 0
-635 634 0
-635 -570 0
-635 574 636 0
-636 635 0
-636 -574 0
636 -628 637 0
-637 -636 0
-637 628 0
602 -637 638 0
-638 -602 0
-638 637 0
-572 575 639 0
-639 572 0
-639 -575 0
-639 577 640 0
-640 639 0
-640 -577 0
573 -640 641 0
-641 -573 0
-641 640 0
580 -641 642 0
-642 -580 0
-642 641 0
582 -642 643 0
-643 -582 0
-643 642 0
-643 571 644 0
-644 643 0
-644 -571 0
-644 570 645 0
-645 644 0
-645 -570 0
574 -645 646 0
-646 -574 0
-646 645 0
-638 646 647 0
-647 638 0
-647 -646 0
-571 575 648 0
-648 571 0
-648 -575 0
577 -648 649 0
-649 -577 0
-649 648 0
-649 573 650 0
-650 649 0
-650 -573 0
-650 580 651 0
-651 650 0
-651 -580 0
582 -651 652 0
-652 -582 0
-652 651 0
572 -652 653 0
-653 -572 0
-653 652 0
-653 570 654 0
-654 653 0
-654 -570 0
-654 574 655 0
-655 654 0
-655 -574 0
655 -647 656 0
-656 -655 0
-656 647 0
-656 594 657 0
-657 656 0
-657 -594 0
586 -657 658 0
-658 -586 0
-658 657 0
155 -171 659 0
-659 -155 0
-659 171 0
153 -659 660 0
-660 -153 0
-660 659 0
-660 161 661 0
-661 660 0
-661 -161 0
-661 164 662 0
-662 661 0
-662 -164 0
151 -662 663 0
-663 -151 0
-663 662 0
149 -663 664 0
-664 -149 0
-664 663 0
147 -664 665 0
-665 -147 0
-665 664 0
-665 144 666 0
-666 665 0
-666 -144 0
-149 155 667 0
-667 149 0
-667 -155 0
-667 153 668 0
-668 667 0
-668 -153 0
161 -668 669 0
-669 -161 0
-669 668 0
164 -669 670 0
-670 -164 0
-670 669 0
-670 151 671 0
-671 670 0
-671 -151 0
-671 147 672 0
-672 671 0
-672 -147 0
144 -672 673 0
-673 -144 0
-673 672 0
-673 171 674 0
-674 673 0
-674 -171 0
-164 155 675 0
-675 164 0
-675 -155 0
153 -675 676 0
-676 -153 0
-676 675 0
161 -676 677 0
-677 -161 0
-677 676 0
151 -677 678 0
-678 -151 0
-678 677 0
-678 149 679 0
-679 678 0
-679 -149 0
147 -679 680 0
-680 -147 0
-680 679 0
-680 144 681 0
-681 680 0
-681 -144 0
171 -681 682 0
-682 -171 0
-682 681 0
-153 155 683 0
-683 153 0
-683 -155 0
161 -683 684 0
-684 -161 0
-684 683 0
164 -684 685 0
-685 -164 0
-685 684 0
-685 151 686 0
-686 685 0
-686 -151 0
-686 149 687 0
-687 686 0
-687 -149 0
147 -687 688 0
-688 -147 0
-688 687 0
144 -688 689 0
-689 -144 0
-689 688 0
171 -689 690 0
-690 -171 0
-690 689 0
153 -155 691 0
-691 -153 0
-691 155 0
161 -691 692 0
-692 -161 0
-692 691 0
-692 164 693 0
-693 692 0
-693 -164 0
151 -693 694 0
-694 -151 0
-694 693 0
149 -694 695 0
-695 -149 0
-695 694 0
147 -695 696 0
-696 -147 0
-696 695 0
-696 144 697 0
-697 696 0
-697 -144 0
171 -697 698 0
-698 -171 0
-698 697 0
690 698 699 0
-699 -690 0
-699 -698 0
-161 155 700 0
-700 161 0
-700 -155 0
-700 153 701 0
-701 700 0
-701 -153 0
164 -701 702 0
-702 -164 0
-702 701 0
-702 151 703 0
-703 702 0
-703 -151 0
-703 149 704 0
-704 703 0
-704 -149 0
-704 147 705 0
-705 704 0
-705 -147 0
-705 144 706 0
-706 705 0
-706 -144 0
171 -706 707 0
-707 -171 0
-707 706 0
707 -699 708 0
-708 -707 0
-708 699 0
-708 682 709 0
-709 708 0
-709 -682 0
155 -151 710 0
-710 -155 0
-710 151 0
153 -710 711 0
-711 -153 0
-711 710 0
-711 161 712 0
-712 711 0
-712 -161 0
164 -712 713 0
-713 -164 0
-713 712 0
-713 149 714 0
-714 713 0
-714 -149 0
-714 147 715 0
-715 714 0
-715 -147 0
-715 144 716 0
-716 715 0
-716 -144 0
171 -716 717 0
-717 -171 0
-717 716 0
-709 717 718 0
-718 709 0
-718 -717 0
674 -718 719 0
-719 -674 0
-719 718 0
155 -147 720 0
-720 -155 0
-720 147 0
-720 153 721 0
-721 720 0
-721 -153 0
-721 161 722 0
-722 721 0
-722 -161 0
-722 164 723 0
-723 722 0
-723 -164 0
151 -723 724 0
-724 -151 0
-724 723 0
149 -724 725 0
-725 -149 0
-725 724 0
-725 144 726 0
-726 725 0
-726 -144 0
171 -726 727 0
-727 -171 0
-727 726 0
-719 727 728 0
-728 719 0
-728 -727 0
155 -144 729 0
-729 -155 0
-729 144 0
153 -729 730 0
-730 -153 0
-730 729 0
161 -730 731 0
-731 -161 0
-731 730 0
-731 164 732 0
-732 731 0
-732 -164 0
151 -732 733 0
-733 -151 0
-733 732 0
149 -733 734 0
-734 -149 0
-734 733 0
-734 147 735 0
-735 734 0
-735 -147 0
-735 171 736 0
-736 735 0
-736 -171 0
-728 736 737 0
-737 728 0
-737 -736 0
-737 666 738 0
-738 737 0
-738 -666 0
16 -5 739 0
-739 -16 0
-739 5 0
-739 7 740 0
-740 739 0
-740 -7 0
-740 20 741 0
-741 740 0
-741 -20 0
34 -741 742 0
-742 -34 0
-742 741 0
-742 40 743 0
-743 742 0
-743 -40 0
-743 32 744 0
-744 743 0
-744 -32 0
-744 11 745 0
-745 744 0
-745 -11 0
-745 2 746 0
-746 745 0
-746 -2 0
-34 16 747 0
-747 34 0
-747 -16 0
7 -747 748 0
-748 -7 0
-748 747 0
-748 20 749 0
-749 748 0
-749 -20 0
-749 5 750 0
-750 749 0
-750 -5 0
40 -750 751 0
-751 -40 0
-751 750 0
32 -751 752 0
-752 -32 0
-752 751 0
-752 11 753 0
-753 752 0
-753 -11 0
-753 2 754 0
-754 753 0
-754 -2 0
16 -20 755 0
-755 -16 0
-755 20 0
-755 7 756 0
-756 755 0
-756 -7 0
34 -756 757 0
-757 -34 0
-757 756 0
5 -757 758 0
-758 -5 0
-758 757 0
-758 40 759 0
-759 758 0
-759 -40 0
-759 32 760 0
-760 759 0
-760 -32 0
11 -760 761 0
-761 -11 0
-761 760 0
2 -761 762 0
-762 -2 0
-762 761 0
-16 7 763 0
-763 16 0
-763 -7 0
20 -763 764 0
-764 -20 0
-764 763 0
-764 34 765 0
-765 764 0
-765 -34 0
-765 5 766 0
-766 765 0
-766 -5 0
40 -766 767 0
-767 -40 0
-767 766 0
-767 32 768 0
-768 767 0
-768 -32 0
11 -768 769 0
-769 -11 0
-769 768 0
-769 2 770 0
-770 769 0
-770 -2 0
16 -7 771 0
-771 -16 0
-771 7 0
20 -771 772 0
-772 -20 0
-772 771 0
-772 34 773 0
-773 772 0
-773 -34 0
5 -773 774 0
-774 -5 0
-774 773 0
-774 40 775 0
-775 774 0
-775 -40 0
32 -775 776 0
-776 -32 0
-776 775 0
11 -776 777 0
-777 -11 0
-777 776 0
2 -777 778 0
-778 -2 0
-778 777 0
778 770 779 0
-779 -778 0
-779 -770 0
762 -779 780 0
-780 -762 0
-780 779 0
-780 754 781 0
-781 780 0
-781 -754 0
-781 746 782 0
-782 781 0
-782 -746 0
16 -40 783 0
-783 -16 0
-783 40 0
7 -783 784 0
-784 -7 0
-784 783 0
20 -784 785 0
-785 -20 0
-785 784 0
34 -785 786 0
-786 -34 0
-786 785 0
-786 5 787 0
-787 786 0
-787 -5 0
-787 32 788 0
-788 787 0
-788 -32 0
-788 11 789 0
-789 788 0
-789 -11 0
-789 2 790 0
-790 789 0
-790 -2 0
790 -782 791 0
-791 -790 0
-791 782 0
-32 16 792 0
-792 32 0
-792 -16 0
7 -792 793 0
-793 -7 0
-793 792 0
-793 20 794 0
-794 793 0
-794 -20 0
34 -794 795 0
-795 -34 0
-795 794 0
-795 5 796 0
-796 795 0
-796 -5 0
-796 40 797 0
-797 796 0
-797 -40 0
11 -797 798 0
-798 -11 0
-798 797 0
2 -798 799 0
-799 -2 0
-799 798 0
-791 799 800 0
-800 791 0
-800 -799 0
-11 16 801 0
-801 11 0
-801 -16 0
7 -801 802 0
-802 -7 0
-802 801 0
20 -802 803 0
-803 -20 0
-803 802 0
34 -803 804 0
-804 -34 0
-804 803 0
-804 5 805 0
-805 804 0
-805 -5 0
-805 40 806 0
-806 805 0
-806 -40 0
-806 32 807 0
-807 806 0
-807 -32 0
-807 2 808 0
-808 807 0
-808 -2 0
808 -800 809 0
-809 -808 0
-809 800 0
16 -2 810 0
-810 -16 0
-810 2 0
-810 7 811 0
-811 810 0
-811 -7 0
20 -811 812 0
-812 -20 0
-812 811 0
-812 34 813 0
-813 812 0
-813 -34 0
-813 5 814 0
-814 813 0
-814 -5 0
40 -814 815 0
-815 -40 0
-815 814 0
32 -815 816 0
-816 -32 0
-816 815 0
-816 11 817 0
-817 816 0
-817 -11 0
-809 817 818 0
-818 809 0
-818 -817 0
818 738 819 0
-819 -818 0
-819 -738 0
658 -819 820 0
-820 -658 0
-820 819 0
822 -821 823 0
-823 -822 0
-823 821 0
823 -2 824 0
-824 -823 0
-824 2 0
825 -826 827 0
-827 -825 0
-827 826 0
827 -570 828 0
-828 -827 0
-828 570 0
-830 829 831 0
-831 830 0
-831 -829 0
-11 831 832 0
-832 11 0
-832 -831 0
834 -833 835 0
-835 -834 0
-835 833 0
-32 835 836 0
-836 32 0
-836 -835 0
-837 838 839 0
-839 837 0
-839 -838 0
839 -572 840 0
-840 -839 0
-840 572 0
-841 842 843 0
-843 841 0
-843 -842 0
843 -40 844 0
-844 -843 0
-844 40 0
-846 845 847 0
-847 846 0
-847 -845 0
847 -149 848 0
-848 -847 0
-848 149 0
-850 849 851 0
-851 850 0
-851 -849 0
-582 851 852 0
-852 582 0
-852 -851 0
854 -853 855 0
-855 -854 0
-855 853 0
-5 855 856 0
-856 5 0
-856 -855 0
-857 858 859 0
-859 857 0
-859 -858 0
-34 859 860 0
-860 34 0
-860 -859 0
861 -862 863 0
-863 -861 0
-863 862 0
863 -573 864 0
-864 -863 0
-864 573 0
865 -866 867 0
-867 -865 0
-867 866 0
867 -161 868 0
-868 -867 0
-868 161 0
-870 869 871 0
-871 870 0
-871 -869 0
871 -7 872 0
-872 -871 0
-872 7 0
-873 874 875 0
-875 873 0
-875 -874 0
-153 875 876 0
-876 153 0
-876 -875 0
878 -877 879 0
-879 -878 0
-879 877 0
879 -16 880 0
-880 -879 0
-880 16 0
-881 882 883 0
-883 881 0
-883 -882 0
883 -155 884 0
-884 -883 0
-884 155 0
880 884 885 0
-885 -880 0
-885 -884 0
887 -886 888 0
-888 -887 0
-888 886 0
888 -575 889 0
-889 -888 0
-889 575 0
-885 889 890 0
-890 885 0
-890 -889 0
876 -890 891 0
-891 -876 0
-891 890 0
-891 872 892 0
-892 891 0
-892 -872 0
894 -893 895 0
-895 -894 0
-895 893 0
-577 895 896 0
-896 577 0
-896 -895 0
-892 896 897 0
-897 892 0
-897 -896 0
-897 868 898 0
-898 897 0
-898 -868 0
900 -899 901 0
-901 -900 0
-901 899 0
901 -20 902 0
-902 -901 0
-902 20 0
902 -898 903 0
-903 -902 0
-903 898 0
-903 864 904 0
-904 903 0
-904 -864 0
905 -906 907 0
-907 -905 0
-907 906 0
907 -164 908 0
-908 -907 0
-908 164 0
908 -904 909 0
-909 -908 0
-909 904 0
-909 860 910 0
-910 909 0
-910 -860 0
912 -911 913 0
-913 -912 0
-913 911 0
913 -580 914 0
-914 -913 0
-914 580 0
914 -910 915 0
-915 -914 0
-915 910 0
-916 917 918 0
-918 916 0
-918 -917 0
-151 918 919 0
-919 151 0
-919 -918 0
-915 919 920 0
-920 915 0
-920 -919 0
-920 856 921 0
-921 920 0
-921 -856 0
-921 852 922 0
-922 921 0
-922 -852 0
-922 848 923 0
-923 922 0
-923 -848 0
-923 844 924 0
-924 923 0
-924 -844 0
840 -924 925 0
-925 -840 0
-925 924 0
-926 927 928 0
-928 926 0
-928 -927 0
-147 928 929 0
-929 147 0
-929 -928 0
-925 929 930 0
-930 925 0
-930 -929 0
-930 836 931 0
-931 930 0
-931 -836 0
-933 932 934 0
-934 933 0
-934 -932 0
934 -571 935 0
-935 -934 0
-935 571 0
935 -931 936 0
-936 -935 0
-936 931 0
-937 938 939 0
-939 937 0
-939 -938 0
-144 939 940 0
-940 144 0
-940 -939 0
940 -936 941 0
-941 -940 0
-941 936 0
832 -941 942 0
-942 -832 0
-942 941 0
-942 828 943 0
-943 942 0
-943 -828 0
945 -944 946 0
-946 -945 0
-946 944 0
946 -171 947 0
-947 -946 0
-947 171 0
-943 947 948 0
-948 943 0
-948 -947 0
-948 824 949 0
-949 948 0
-949 -824 0
950 -951 952 0
-952 -950 0
-952 951 0
-574 952 953 0
-953 574 0
-953 -952 0
-949 953 954 0
-954 949 0
-954 -953 0
-954 -820 955 0
-955 954 0
-955 820 0
304 281 956 0
-956 -304 0
-956 -281 0
-927 956 957 0
-957 927 0
-957 -956 0
927 -956 958 0
-958 -927 0
-958 956 0
957 958 959 0
-959 -957 0
-959 -958 0
145 310 960 0
-960 -145 0
-960 -310 0
-845 960 961 0
-961 845 0
-961 -960 0
845 -960 962 0
-962 -845 0
-962 960 0
961 962 963 0
-963 -961 0
-963 -962 0
882 874 964 0
-964 -882 0
-964 -874 0
-964 865 965 0
-965 964 0
-965 -865 0
258 305 966 0
-966 -258 0
-966 -305 0
905 -966 967 0
-967 -905 0
-967 966 0
-905 966 968 0
-968 905 0
-968 -966 0
968 967 969 0
-969 -968 0
-969 -967 0
969 -965 970 0
-970 -969 0
-970 965 0
-970 917 971 0
-971 970 0
-971 -917 0
-971 963 972 0
-972 971 0
-972 -963 0
959 -972 973 0
-973 -959 0
-973 972 0
-973 938 974 0
-974 973 0
-974 -938 0
945 -974 975 0
-975 -945 0
-975 974 0
174 368 976 0
-976 -174 0
-976 -368 0
976 -842 977 0
-977 -976 0
-977 842 0
-976 842 978 0
-978 976 0
-978 -842 0
977 978 979 0
-979 -977 0
-979 -978 0
95 318 980 0
-980 -95 0
-980 -318 0
-980 858 981 0
-981 980 0
-981 -858 0
980 -858 982 0
-982 -980 0
-982 858 0
982 981 983 0
-983 -982 0
-983 -981 0
878 869 984 0
-984 -878 0
-984 -869 0
900 -984 985 0
-985 -900 0
-985 984 0
983 -985 986 0
-986 -983 0
-986 985 0
-986 854 987 0
-987 986 0
-987 -854 0
979 -987 988 0
-988 -979 0
-988 987 0
119 72 989 0
-989 -119 0
-989 -72 0
-989 834 990 0
-990 989 0
-990 -834 0
989 -834 991 0
-991 -989 0
-991 834 0
991 990 992 0
-992 -991 0
-992 -990 0
-988 992 993 0
-993 988 0
-993 -992 0
-993 829 994 0
-994 993 0
-994 -829 0
822 -994 995 0
-995 -822 0
-995 994 0
-995 -975 996 0
-996 995 0
-996 975 0
71 140 997 0
-997 -71 0
-997 -140 0
932 -997 998 0
-998 -932 0
-998 997 0
-932 997 999 0
-999 932 0
-999 -997 0
999 998 1000 0
-1000 -999 0
-1000 -998 0
432 115 1001 0
-1001 -432 0
-1001 -115 0
-912 1001 1002 0
-1002 912 0
-1002 -1001 0
912 -1001 1003 0
-1003 -912 0
-1003 1001 0
1002 1003 1004 0
-1004 -1002 0
-1004 -1003 0
894 887 1005 0
-1005 -894 0
-1005 -887 0
-1005 861 1006 0
-1006 1005 0
-1006 -861 0
1004 -1006 1007 0
-1007 -1004 0
-1007 1006 0
849 -1007 1008 0
-1008 -849 0
-1008 1007 0
460 546 1009 0
-1009 -460 0
-1009 -546 0
-1009 838 1010 0
-1010 1009 0
-1010 -838 0
1009 -838 1011 0
-1011 -1009 0
-1011 838 0
1011 1010 1012 0
-1012 -1011 0
-1012 -1010 0
1012 -1008 1013 0
-1013 -1012 0
-1013 1008 0
1000 -1013 1014 0
-1014 -1000 0
-1014 1013 0
825 -1014 1015 0
-1015 -825 0
-1015 1014 0
-1015 950 1016 0
-1016 1015 0
-1016 -950 0
-996 -1016 1017 0
-1017 996 0
-1017 1016 0
-955 -1017 1018 0
-1018 955 0
-1018 1017 0
833 3 1019 0
-1019 -833 0
-1019 -3 0
-833 -3 1020 0
-1020 833 0
-1020 3 0
1020 1019 1021 0
-1021 -1020 0
-1021 -1019 0
3 857 1022 0
-1022 -3 0
-1022 -857 0
-3 -857 1023 0
-1023 3 0
-1023 857 0
1023 1022 1024 0
-1024 -1023 0
-1024 -1022 0
-877 -53 1025 0
-1025 877 0
-1025 53 0
877 53 1026 0
-1026 -877 0
-1026 -53 0
1025 1026 1027 0
-1027 -1025 0
-1027 -1026 0
9 870 1028 0
-1028 -9 0
-1028 -870 0
-9 -870 1029 0
-1029 9 0
-1029 870 0
1029 1028 1030 0
-1030 -1029 0
-1030 -1028 0
1027 1030 1031 0
-1031 -1027 0
-1031 -1030 0
-899 -53 1032 0
-1032 899 0
-1032 53 0
899 53 1033 0
-1033 -899 0
-1033 -53 0
1032 1033 1034 0
-1034 -1032 0
-1034 -1033 0
-1031 1034 1035 0
-1035 1031 0
-1035 -1034 0
1024 -1035 1036 0
-1036 -1024 0
-1036 1035 0
853 9 1037 0
-1037 -853 0
-1037 -9 0
-853 -9 1038 0
-1038 853 0
-1038 9 0
1038 1037 1039 0
-1039 -1038 0
-1039 -1037 0
-1036 1039 1040 0
-1040 1036 0
-1040 -1039 0
841 3 1041 0
-1041 -841 0
-1041 -3 0
-841 -3 1042 0
-1042 841 0
-1042 3 0
1042 1041 1043 0
-1043 -1042 0
-1043 -1041 0
1043 -1040 1044 0
-1044 -1043 0
-1044 1040 0
1021 -1044 1045 0
-1045 -1021 0
-1045 1044 0
-9 -830 1046 0
-1046 9 0
-1046 830 0
9 830 1047 0
-1047 -9 0
-1047 -830 0
1046 1047 1048 0
-1048 -1046 0
-1048 -1047 0
-1045 1048 1049 0
-1049 1045 0
-1049 -1048 0
821 53 1050 0
-1050 -821 0
-1050 -53 0
-821 -53 1051 0
-1051 821 0
-1051 53 0
1051 1050 1052 0
-1052 -1051 0
-1052 -1050 0
-1049 1052 1053 0
-1053 1049 0
-1053 -1052 0
241 944 1054 0
-1054 -241 0
-1054 -944 0
-241 -944 1055 0
-1055 241 0
-1055 944 0
1055 1054 1056 0
-1056 -1055 0
-1056 -1054 0
-937 -236 1057 0
-1057 937 0
-1057 236 0
937 236 1058 0
-1058 -937 0
-1058 -236 0
1057 1058 1059 0
-1059 -1057 0
-1059 -1058 0
926 201 1060 0
-1060 -926 0
-1060 -201 0
-926 -201 1061 0
-1061 926 0
-1061 201 0
1061 1060 1062 0
-1062 -1061 0
-1062 -1060 0
-241 -881 1063 0
-1063 241 0
-1063 881 0
241 881 1064 0
-1064 -241 0
-1064 -881 0
1063 1064 1065 0
-1065 -1063 0
-1065 -1064 0
873 236 1066 0
-1066 -873 0
-1066 -236 0
-873 -236 1067 0
-1067 873 0
-1067 236 0
1067 1066 1068 0
-1068 -1067 0
-1068 -1066 0
1065 1068 1069 0
-1069 -1065 0
-1069 -1068 0
241 866 1070 0
-1070 -241 0
-1070 -866 0
-241 -866 1071 0
-1071 241 0
-1071 866 0
1071 1070 1072 0
-1072 -1071 0
-1072 -1070 0
1072 -1069 1073 0
-1073 -1072 0
-1073 1069 0
906 201 1074 0
-1074 -906 0
-1074 -201 0
-906 -201 1075 0
-1075 906 0
-1075 201 0
1075 1074 1076 0
-1076 -1075 0
-1076 -1074 0
1076 -1073 1077 0
-1077 -1076 0
-1077 1073 0
236 916 1078 0
-1078 -236 0
-1078 -916 0
-236 -916 1079 0
-1079 236 0
-1079 916 0
1079 1078 1080 0
-1080 -1079 0
-1080 -1078 0
-1077 1080 1081 0
-1081 1077 0
-1081 -1080 0
-846 -201 1082 0
-1082 846 0
-1082 201 0
846 201 1083 0
-1083 -846 0
-1083 -201 0
1082 1083 1084 0
-1084 -1082 0
-1084 -1083 0
-1081 1084 1085 0
-1085 1081 0
-1085 -1084 0
-1085 1062 1086 0
-1086 1085 0
-1086 -1062 0
-1086 1059 1087 0
-1087 1086 0
-1087 -1059 0
1056 -1087 1088 0
-1088 -1056 0
-1088 1087 0
-1088 -1053 1089 0
-1089 1088 0
-1089 1053 0
826 49 1090 0
-1090 -826 0
-1090 -49 0
-826 -49 1091 0
-1091 826 0
-1091 49 0
1091 1090 1092 0
-1092 -1091 0
-1092 -1090 0
933 1 1093 0
-1093 -933 0
-1093 -1 0
-933 -1 1094 0
-1094 933 0
-1094 1 0
1094 1093 1095 0
-1095 -1094 0
-1095 -1093 0
837 1 1096 0
-1096 -837 0
-1096 -1 0
-837 -1 1097 0
-1097 837 0
-1097 1 0
1097 1096 1098 0
-1098 -1097 0
-1098 -1096 0
1 911 1099 0
-1099 -1 0
-1099 -911 0
-1 -911 1100 0
-1100 1 0
-1100 911 0
1100 1099 1101 0
-1101 -1100 0
-1101 -1099 0
-49 -893 1102 0
-1102 49 0
-1102 893 0
49 893 1103 0
-1103 -49 0
-1103 -893 0
1102 1103 1104 0
-1104 -1102 0
-1104 -1103 0
-886 -525 1105 0
-1105 886 0
-1105 525 0
886 525 1106 0
-1106 -886 0
-1106 -525 0
1105 1106 1107 0
-1107 -1105 0
-1107 -1106 0
1107 1104 1108 0
-1108 -1107 0
-1108 -1104 0
862 525 1109 0
-1109 -862 0
-1109 -525 0
-862 -525 1110 0
-1110 862 0
-1110 525 0
1110 1109 1111 0
-1111 -1110 0
-1111 -1109 0
1111 -1108 1112 0
-1112 -1111 0
-1112 1108 0
1101 -1112 1113 0
-1113 -1101 0
-1113 1112 0
850 49 1114 0
-1114 -850 0
-1114 -49 0
-850 -49 1115 0
-1115 850 0
-1115 49 0
1115 1114 1116 0
-1116 -1115 0
-1116 -1114 0
1116 -1113 1117 0
-1117 -1116 0
-1117 1113 0
1098 -1117 1118 0
-1118 -1098 0
-1118 1117 0
-1118 1095 1119 0
-1119 1118 0
-1119 -1095 0
-1119 1092 1120 0
-1120 1119 0
-1120 -1092 0
-525 -951 1121 0
-1121 525 0
-1121 951 0
525 951 1122 0
-1122 -525 0
-1122 -951 0
1121 1122 1123 0
-1123 -1121 0
-1123 -1122 0
1123 -1120 1124 0
-1124 -1123 0
-1124 1120 0
-1124 -1089 1125 0
-1125 1124 0
-1125 1089 0
-1125 -1018 1126 0
-1126 1125 0
-1126 1018 0
-1126 -569 1127 0
-1127 1126 0
-1127 569 0
